# Objective value = 2.9933502713819411e+02
x[0] 1
x[1] 1
x[2] 0
x[3] 0
x[4] 0
x[5] 1
x[6] 0
x[7] 1
x[8] 0
x[9] 1
x[10] 0
x[11] 1
x[12] 0
x[13] 1
x[14] 1
x[15] 0
x[16] 1
x[17] 0
x[18] 1
x[19] 0
x[20] 0
x[21] 0
x[22] 1
x[23] 0
x[24] 1
x[25] 0
x[26] 0
x[27] 0
x[28] 0
x[29] 0
x[30] 0
x[31] 1
x[32] 1
x[33] 1
x[34] 1
x[35] 0
x[36] 0
x[37] 0
x[38] 0
x[39] 0
x[40] 1
x[41] 0
x[42] 0
x[43] 0
x[44] 1
x[45] 1
x[46] 1
x[47] 1
x[48] 1
x[49] 1
x[50] 1
x[51] 1
x[52] 1
x[53] 1
x[54] 1
x[55] 0
x[56] 0
x[57] 1
x[58] 1
x[59] 0
x[60] 0
x[61] 0
x[62] 1
x[63] 0
x[64] 0
x[65] 1
x[66] 0
x[67] 0
x[68] 1
x[69] 0
x[70] 0
x[71] 1
x[72] 0
x[73] 0
x[74] 1
x[75] 1
x[76] 0
x[77] 0
x[78] 0
x[79] 1
x[80] 1
x[81] 1
x[82] 1
x[83] 0
x[84] 1
x[85] 1
x[86] 1
x[87] 0
x[88] 0
x[89] 1
x[90] 0
x[91] 1
x[92] 0
x[93] 1
x[94] 0
x[95] 0
x[96] 1
x[97] 0
x[98] 1
x[99] 0
x[100] 1
x[101] 0
x[102] 0
x[103] 0
x[104] 1
x[105] 0
x[106] 1
x[107] 0
x[108] 0
x[109] 1
x[110] 0
x[111] 1
x[112] 1
x[113] 1
x[114] 1
x[115] 0
x[116] 0
x[117] 0
x[118] 0
x[119] 1
x[120] 1
x[121] 0
x[122] 0
x[123] 0
x[124] 1
x[125] 0
x[126] 1
x[127] 0
x[128] 1
x[129] 1
x[130] 0
x[131] 1
x[132] 1
x[133] 1
x[134] 0
x[135] 0
x[136] 0
x[137] 0
x[138] 1
x[139] 1
x[140] 0
x[141] 0
x[142] 0
x[143] 1
x[144] 1
x[145] 1
x[146] 0
x[147] 0
x[148] 1
x[149] 0
x[150] 0
x[151] 1
x[152] 0
x[153] 1
x[154] 1
x[155] 1
x[156] 1
x[157] 0
x[158] 0
x[159] 0
x[160] 1
x[161] 1
x[162] 1
x[163] 1
x[164] 0
x[165] 0
x[166] 0
x[167] 0
x[168] 1
x[169] 0
x[170] 0
x[171] 0
x[172] 1
x[173] 1
x[174] 1
x[175] 1
x[176] 0
x[177] 0
x[178] 1
x[179] 0
x[180] 1
x[181] 0
x[182] 1
x[183] 0
x[184] 0
x[185] 0
x[186] 1
x[187] 1
x[188] 0
x[189] 0
x[190] 1
x[191] 1
x[192] 0
x[193] 0
x[194] 0
x[195] 0
x[196] 0
x[197] 1
x[198] 0
x[199] 1
x[200] 1
x[201] 1
x[202] 1
x[203] 1
x[204] 0
x[205] 1
x[206] 1
x[207] 0
x[208] 0
x[209] 1
x[210] 0
x[211] 1
x[212] 1
x[213] 0
x[214] 1
x[215] 0
x[216] 0
x[217] 0
x[218] 0
x[219] 1
x[220] 0
x[221] 0
x[222] 1
x[223] 1
x[224] 1
x[225] 0
x[226] 1
x[227] 1
x[228] 1
x[229] 0
x[230] 1
x[231] 1
x[232] 1
x[233] 1
x[234] 0
x[235] 1
x[236] 0
x[237] 1
x[238] 1
x[239] 1
x[240] 0
x[241] 0
x[242] 1
x[243] 1
x[244] 0
x[245] 1
x[246] 0
x[247] 0
x[248] 1
x[249] 0
x[250] 0
x[251] 1
x[252] 0
x[253] 1
x[254] 1
x[255] 1
x[256] 0
x[257] 0
x[258] 0
x[259] 0
x[260] 0
x[261] 0
x[262] 1
x[263] 1
x[264] 0
x[265] 1
x[266] 0
x[267] 0
x[268] 1
x[269] 0
x[270] 0
x[271] 1
x[272] 0
x[273] 1
x[274] 0
x[275] 1
x[276] 0
x[277] 1
x[278] 0
x[279] 0
x[280] 1
x[281] 1
x[282] 1
x[283] 1
x[284] 0
x[285] 1
x[286] 0
x[287] 0
x[288] 1
x[289] 0
x[290] 0
x[291] 1
x[292] 0
x[293] 1
x[294] 1
x[295] 1
x[296] 1
x[297] 1
x[298] 1
x[299] 0
x[300] 0
x[301] 1
x[302] 0
x[303] 0
x[304] 1
x[305] 1
x[306] 0
x[307] 0
x[308] 1
x[309] 1
x[310] 1
x[311] 0
x[312] 0
x[313] 0
x[314] 1
x[315] 0
x[316] 0
x[317] 0
x[318] 1
x[319] 1
x[320] 0
x[321] 1
x[322] 1
x[323] 0
x[324] 1
x[325] 0
x[326] 0
x[327] 1
x[328] 1
x[329] 1
x[330] 1
x[331] 0
x[332] 1
x[333] 0
x[334] 0
x[335] 0
x[336] 0
x[337] 1
x[338] 1
x[339] 0
x[340] 1
x[341] 0
x[342] 0
x[343] 1
x[344] 0
x[345] 0
x[346] 1
x[347] 0
x[348] 0
x[349] 0
x[350] 0
x[351] 0
x[352] 1
x[353] 0
x[354] 0
x[355] 0
x[356] 1
x[357] 1
x[358] 0
x[359] 1
x[360] 1
x[361] 1
x[362] 1
x[363] 1
x[364] 1
x[365] 0
x[366] 1
x[367] 1
x[368] 1
x[369] 1
x[370] 0
x[371] 0
x[372] 0
x[373] 0
x[374] 0
x[375] 0
x[376] 0
x[377] 0
x[378] 0
x[379] 0
x[380] 1
x[381] 1
x[382] 1
x[383] 0
x[384] 1
x[385] 1
x[386] 1
x[387] 0
x[388] 0
x[389] 0
x[390] 1
x[391] 1
x[392] 1
x[393] 0
x[394] 0
x[395] 0
x[396] 0
x[397] 0
x[398] 0
x[399] 1
x[400] 1
x[401] 0
x[402] 0
x[403] 0
x[404] 1
x[405] 0
x[406] 1
x[407] 0
x[408] 0
x[409] 1
x[410] 1
x[411] 1
x[412] 1
x[413] 1
x[414] 0
x[415] 1
x[416] 1
x[417] 0
x[418] 0
x[419] 0
x[420] 0
x[421] 0
x[422] 0
x[423] 0
x[424] 0
x[425] 0
x[426] 0
x[427] 0
x[428] 0
x[429] 1
x[430] 1
x[431] 1
x[432] 1
x[433] 1
x[434] 0
x[435] 0
x[436] 0
x[437] 0
x[438] 1
x[439] 0
x[440] 0
x[441] 0
x[442] 0
x[443] 0
x[444] 0
x[445] 0
x[446] 0
x[447] 1
x[448] 1
x[449] 1
x[450] 0
x[451] 1
x[452] 0
x[453] 1
x[454] 1
x[455] 0
x[456] 1
x[457] 0
x[458] 1
x[459] 0
x[460] 0
x[461] 0
x[462] 0
x[463] 0
x[464] 0
x[465] 1
x[466] 0
x[467] 0
x[468] 1
x[469] 1
x[470] 1
x[471] 1
x[472] 1
x[473] 0
x[474] 0
x[475] 0
x[476] 0
x[477] 1
x[478] 1
x[479] 1
x[480] 0
x[481] 0
x[482] 1
x[483] 0
x[484] 0
x[485] 0
x[486] 1
x[487] 0
x[488] 0
x[489] 1
x[490] 1
x[491] 0
x[492] 0
x[493] 0
x[494] 0
x[495] 0
x[496] 1
x[497] 0
x[498] 0
x[499] 0
x[500] 0
x[501] 1
x[502] 1
x[503] 1
x[504] 0
x[505] 0
x[506] 1
x[507] 0
x[508] 0
x[509] 0
x[510] 0
x[511] 0
x[512] 0
x[513] 0
x[514] 0
x[515] 0
x[516] 0
x[517] 0
x[518] 1
x[519] 1
x[520] 0
x[521] 0
x[522] 1
x[523] 1
x[524] 1
x[525] 1
x[526] 0
x[527] 1
x[528] 0
x[529] 0
x[530] 1
x[531] 0
x[532] 0
x[533] 0
x[534] 1
x[535] 1
x[536] 0
x[537] 1
x[538] 1
x[539] 0
x[540] 0
x[541] 0
x[542] 0
x[543] 0
x[544] 1
x[545] 0
x[546] 1
x[547] 0
x[548] 1
x[549] 0
x[550] 0
x[551] 1
x[552] 0
x[553] 1
x[554] 0
x[555] 0
x[556] 0
x[557] 1
x[558] 0
x[559] 0
x[560] 1
x[561] 0
x[562] 0
x[563] 0
x[564] 0
x[565] 0
x[566] 0
x[567] 1
x[568] 1
x[569] 0
x[570] 1
x[571] 0
x[572] 0
x[573] 0
x[574] 0
x[575] 1
x[576] 0
x[577] 0
x[578] 1
x[579] 0
x[580] 0
x[581] 0
x[582] 1
x[583] 1
x[584] 0
x[585] 1
x[586] 0
x[587] 0
x[588] 1
x[589] 1
x[590] 1
x[591] 0
x[592] 0
x[593] 1
x[594] 1
x[595] 0
x[596] 0
x[597] 1
x[598] 1
x[599] 1
x[600] 0
x[601] 0
x[602] 0
x[603] 0
x[604] 0
x[605] 1
x[606] 1
x[607] 0
x[608] 0
x[609] 1
x[610] 1
x[611] 0
x[612] 0
x[613] 1
x[614] 1
x[615] 1
x[616] 1
x[617] 0
x[618] 1
x[619] 1
x[620] 1
x[621] 0
x[622] 0
x[623] 0
x[624] 0
x[625] 0
x[626] 0
x[627] 1
x[628] 0
x[629] 0
x[630] 1
x[631] 1
x[632] 0
x[633] 1
x[634] 1
x[635] 0
x[636] 1
x[637] 0
x[638] 1
x[639] 1
x[640] 0
x[641] 1
x[642] 0
x[643] 1
x[644] 1
x[645] 1
x[646] 0
x[647] 0
x[648] 0
x[649] 0
x[650] 1
x[651] 1
x[652] 0
x[653] 0
x[654] 1
x[655] 0
x[656] 1
x[657] 0
x[658] 0
x[659] 0
x[660] 1
x[661] 0
x[662] 0
x[663] 0
x[664] 1
x[665] 1
x[666] 0
x[667] 0
x[668] 0
x[669] 0
x[670] 0
x[671] 1
x[672] 0
x[673] 0
x[674] 0
x[675] 1
x[676] 0
x[677] 1
x[678] 0
x[679] 1
x[680] 1
x[681] 1
x[682] 1
x[683] 0
x[684] 0
x[685] 0
x[686] 1
x[687] 0
x[688] 0
x[689] 1
x[690] 1
x[691] 1
x[692] 1
x[693] 0
x[694] 0
x[695] 0
x[696] 0
x[697] 1
x[698] 0
x[699] 1
x[700] 0
x[701] 1
x[702] 0
x[703] 0
x[704] 0
x[705] 1
x[706] 0
x[707] 1
x[708] 0
x[709] 0
x[710] 1
x[711] 1
x[712] 0
x[713] 1
x[714] 0
x[715] 1
x[716] 0
x[717] 0
x[718] 1
x[719] 1
x[720] 0
x[721] 0
x[722] 0
x[723] 1
x[724] 0
x[725] 1
x[726] 0
x[727] 0
x[728] 0
x[729] 1
x[730] 0
x[731] 0
x[732] 1
x[733] 1
x[734] 1
x[735] 0
x[736] 0
x[737] 1
x[738] 1
x[739] 1
x[740] 1
x[741] 0
x[742] 0
x[743] 0
x[744] 1
x[745] 0
x[746] 0
x[747] 0
x[748] 1
x[749] 0
x[750] 1
x[751] 1
x[752] 0
x[753] 0
x[754] 1
x[755] 0
x[756] 0
x[757] 0
x[758] 1
x[759] 0
x[760] 0
x[761] 1
x[762] 0
x[763] 1
x[764] 0
x[765] 0
x[766] 1
x[767] 0
x[768] 0
x[769] 1
x[770] 0
x[771] 0
x[772] 1
x[773] 1
x[774] 1
x[775] 0
x[776] 0
x[777] 0
x[778] 0
x[779] 0
x[780] 0
x[781] 0
x[782] 1
x[783] 1
x[784] 1
x[785] 0
x[786] 0
x[787] 1
x[788] 1
x[789] 1
x[790] 0
x[791] 0
x[792] 0
x[793] 1
x[794] 0
x[795] 0
x[796] 0
x[797] 1
x[798] 0
x[799] 1
x[800] 0
x[801] 1
x[802] 1
x[803] 1
x[804] 0
x[805] 0
x[806] 0
x[807] 1
x[808] 0
x[809] 0
x[810] 1
x[811] 1
x[812] 1
x[813] 0
x[814] 0
x[815] 1
x[816] 0
x[817] 0
x[818] 1
x[819] 1
x[820] 0
x[821] 1
x[822] 0
x[823] 1
x[824] 1
x[825] 1
x[826] 1
x[827] 1
x[828] 1
x[829] 1
x[830] 0
x[831] 1
x[832] 0
x[833] 1
x[834] 0
x[835] 0
x[836] 1
x[837] 0
x[838] 1
x[839] 1
x[840] 0
x[841] 1
x[842] 0
x[843] 1
x[844] 0
x[845] 1
x[846] 1
x[847] 0
x[848] 0
x[849] 1
x[850] 0
x[851] 1
x[852] 1
x[853] 1
x[854] 0
x[855] 0
x[856] 1
x[857] 0
x[858] 1
x[859] 0
x[860] 0
x[861] 1
x[862] 0
x[863] 1
x[864] 1
x[865] 1
x[866] 0
x[867] 1
x[868] 1
x[869] 0
x[870] 1
x[871] 1
x[872] 0
x[873] 1
x[874] 0
x[875] 1
x[876] 1
x[877] 1
x[878] 1
x[879] 1
x[880] 1
x[881] 1
x[882] 0
x[883] 1
x[884] 1
x[885] 1
x[886] 0
x[887] 1
x[888] 1
x[889] 0
x[890] 0
x[891] 0
x[892] 1
x[893] 1
x[894] 0
x[895] 0
x[896] 1
x[897] 0
x[898] 1
x[899] 1
x[900] 1
x[901] 0
x[902] 1
x[903] 1
x[904] 1
x[905] 0
x[906] 1
x[907] 1
x[908] 1
x[909] 1
x[910] 0
x[911] 0
x[912] 1
x[913] 1
x[914] 0
x[915] 1
x[916] 1
x[917] 0
x[918] 1
x[919] 0
x[920] 0
x[921] 1
x[922] 1
x[923] 0
x[924] 1
x[925] 1
x[926] 0
x[927] 1
x[928] 0
x[929] 1
x[930] 0
x[931] 0
x[932] 0
x[933] 1
x[934] 1
x[935] 0
x[936] 0
x[937] 1
x[938] 0
x[939] 1
x[940] 0
x[941] 1
x[942] 0
x[943] 1
x[944] 1
x[945] 1
x[946] 0
x[947] 0
x[948] 1
x[949] 0
x[950] 1
x[951] 0
x[952] 1
x[953] 0
x[954] 1
x[955] 0
x[956] 1
x[957] 1
x[958] 1
x[959] 1
x[960] 0
x[961] 0
x[962] 1
x[963] 0
x[964] 1
x[965] 0
x[966] 0
x[967] 1
x[968] 0
x[969] 1
x[970] 0
x[971] 0
x[972] 0
x[973] 1
x[974] 0
x[975] 0
x[976] 1
x[977] 0
x[978] 1
x[979] 0
x[980] 1
x[981] 0
x[982] 1
x[983] 1
x[984] 0
x[985] 0
x[986] 1
x[987] 1
x[988] 1
x[989] 0
x[990] 0
x[991] 0
x[992] 1
x[993] 0
x[994] 1
x[995] 1
x[996] 1
x[997] 1
x[998] 0
x[999] 1
